40 25
14 12 10 11 9 13 8 15 7 12 10 11 9 14 8 13 7 12 10 11 9 13 8 14 12
6 0 1 2 3 4 5
6 3 4 5 6 7 8
6 6 7 8 9 10 11
6 9 10 11 12 13 14
6 12 13 14 15 16 17
6 15 16 17 18 19 20
6 18 19 20 21 22 23
6 21 22 23 24 25 26
6 24 25 26 27 28 29
6 27 28 29 30 31 32
6 30 31 32 33 34 35
5 0 5 10 15 20
5 1 6 11 16 21
5 2 7 12 17 22
5 3 8 13 18 23
5 4 9 14 19 24
6 10 11 12 13 14 15
6 16 17 18 19 20 21
6 22 23 24 25 26 27
6 28 29 30 31 32 33
6 34 35 36 37 38 39
8 0 8 16 24 32 1 9 17
8 2 10 18 26 34 3 11 19
8 4 12 20 28 36 5 13 21
8 6 14 22 30 38 7 15 23